104 115 110 35 18 38 57 133 134 53 187 139 161 193 194 17 88 168 154 106 58 83 95 36 
67 59 119 126 107 162 60 143 150 192 20 9 122 124 123 100 55 197 170 135 68 66 105 
6 153 93 164 182 78 64 46 15 47 73 32 96 175 185 181 54 80 125 163 51 4 165 52 
137 142 94 140 173 116 65 113 13 50 151 71 90 127 146 92 49 81 74 156 195 75 149 157 129 
178 63 40 10 184 45 33 128 145 191 8 43 199 89 158 69 172 87 7 117 91 120 176 11 23 
167 174 99 183 77 76 30 138 131 27 56 25 130 103 141 112 159 186 109 152 34 111 114 
132 136 200 166 41 148 86 12 48 189 61 108 16 179 19 62 5 190 101 160 82 21 44 14 
144 39 29 118 2 98 169 84 177 22 155 72 97 37 121 180 85 147 79 1 
171 196 198 28 188 70 102 26 3 31 24 
42 

